param set_len = 58;
param target_sum = 13446394773;
param values := [1] 958965013 [2] 284437428 [3] 70787518 [4] 146764312 [5] 678580382 [6] 41614714 [7] 647194012 [8] 490592434 [9] 550770535 [10] 106040581 [11] 133294171 [12] 454783169 [13] 592262579 [14] 494285160 [15] 147796345 [16] 970527200 [17] 854942278 [18] 785769527 [19] 416285372 [20] 840322405 [21] 140939853 [22] 734595412 [23] 716683741 [24] 637572446 [25] 568048021 [26] 608711037 [27] 554968548 [28] 168129361 [29] 55127095 [30] 909077331 [31] 73494405 [32] 1015581947 [33] 427796842 [34] 751292401 [35] 406703132 [36] 904072345 [37] 35449454 [38] 902576414 [39] 92274052 [40] 940332767 [41] 9505666 [42] 928777602 [43] 571357696 [44] 630761673 [45] 520209716 [46] 719671683 [47] 863073770 [48] 234106488 [49] 554114729 [50] 652658445 [51] 7321013 [52] 155648612 [53] 516801970 [54] 176349727 [55] 629111964 [56] 304729419 [57] 169461176 [58] 654795261 ;
